&GLOBAL RELAX         
  PROJECT CsPbBr3_bs_Relaxed_111
  RUN_TYPE CELL_OPT
  PRINT_LEVEL MEDIUM
&END GLOBAL

&FORCE_EVAL
   METHOD Quickstep
   STRESS_TENSOR ANALYTICAL
   &SUBSYS      
    &KIND Pb
      ELEMENT   Pb
      BASIS_SET DZVP-MOLOPT-SR-GTH-q4
      POTENTIAL GTH-PBE-q4
    &END KIND
	&KIND Cs
      ELEMENT   Cs
      BASIS_SET DZVP-MOLOPT-SR-GTH-q9
      POTENTIAL GTH-PBE-q9
    &END KIND
    &KIND Br
      ELEMENT   Br
      BASIS_SET DZVP-MOLOPT-SR-GTH-q7
      POTENTIAL GTH-PBE-q7
    &END KIND
    &CELL
      ABC [angstrom] 6.017334 6.017334 6.017334
      PERIODIC XYZ
      SYMMETRY CUBIC
      MULTIPLE_UNIT_CELL 1 1 1
    &END CELL
    &COORD
       SCALED
       Cs  1./2.  1./2.  1./2.
      Pb  0  0.0  0
      Br  1./2.  0  0	
      Br  0  1./2.  0
      Br  0.0  0  1./2.
    &END COORD   
   &END SUBSYS
   &DFT
      BASIS_SET_FILE_NAME /home/vschild/cp2k_basis/BASIS_MOLOPT
      POTENTIAL_FILE_NAME /home/vschild/cp2k_basis/GTH_POTENTIALS
      &POISSON
         PERIODIC XYZ
      &END POISSON
      &QS
         EXTRAPOLATION USE_GUESS 
         EPS_DEFAULT 1.0E-9
      &END QS
      &MGRID
         NGRIDS 4
         CUTOFF 300
         REL_CUTOFF 50
      &END MGRID
      &XC
         &XC_FUNCTIONAL PBE
         &END XC_FUNCTIONAL
      &END XC
      &SCF
         SCF_GUESS RESTART
         EPS_SCF 1.0E-6
         MAX_SCF 300
         ADDED_MOS 6
         &DIAGONALIZATION ON
            ALGORITHM STANDARD
         &END DIAGONALIZATION
         &MIXING  T
            METHOD BROYDEN_MIXING
            ALPHA 0.2
            BETA 1.5
            NBROYDEN 8
         &END MIXING
         &SMEAR  ON
            METHOD FERMI_DIRAC
            ELECTRONIC_TEMPERATURE [K] 300
         &END SMEAR
      &END SCF
      &KPOINTS
         SCHEME MONKHORST-PACK 3 3 3    
         WAVEFUNCTIONS COMPLEX 
         SYMMETRY .FALSE.
         FULL_GRID .FALSE.
         PARALLEL_GROUP_SIZE -1
    &END KPOINTS
  &END DFT
&END FORCE_EVAL

&MOTION
   &CELL_OPT
      TYPE DIRECT_CELL_OPT
      KEEP_ANGLES .TRUE.
      KEEP_SYMMETRY .TRUE. 
      EXTERNAL_PRESSURE [atm] 1.0 
      PRESSURE_TOLERANCE [atm] 10.0
      MAX_DR    1.0E-03 
      MAX_FORCE 1.0E-03
      RMS_DR    1.0E-03
      RMS_FORCE 1.0E-03
      MAX_ITER 200
      OPTIMIZER CG
  &END
&END MOTION
