&GLOBAL
  PROJECT CsPbBr3_BS_Relaxed_111
  RUN_TYPE ENERGY
  PRINT_LEVEL MEDIUM
&END GLOBAL

&FORCE_EVAL
  METHOD Quickstep

  &DFT
    BASIS_SET_FILE_NAME /home/vschild/cp2k_basis/BASIS_MOLOPT
    POTENTIAL_FILE_NAME /home/vschild/cp2k_basis/GTH_POTENTIALS

    &MGRID 
      CUTOFF 300 
      NGRIDS 4
      REL_CUTOFF 50
    &END 

    &QS
      EPS_DEFAULT 1.0E-7
    &END QS

    &SCF
      SCF_GUESS  RESTART
      EPS_SCF 1.0E-6
      MAX_SCF 300

      ADDED_MOS 6
      &SMEAR ON
        METHOD FERMI_DIRAC
        ELECTRONIC_TEMPERATURE [K] 300
      &END SMEAR
      &DIAGONALIZATION
        ALGORITHM STANDARD
        EPS_ADAPT 0.01
      &END DIAGONALIZATION
      &MIXING
        METHOD BROYDEN_MIXING
        ALPHA 0.2
        BETA 1.5
        NBROYDEN 8
      &END MIXING
    &END SCF

    WFN_RESTART_FILE_NAME  PROJECT-RESTART.wfn

    &XC
      &XC_FUNCTIONAL PBE
      &END XC_FUNCTIONAL
    &END

    &KPOINTS
         SCHEME MONKHORST-PACK 3 3 3
         WAVEFUNCTIONS COMPLEX
         SYMMETRY .FALSE.
         FULL_GRID .FALSE.
         PARALLEL_GROUP_SIZE -1
    &END

    &PRINT
      &BAND_STRUCTURE
        ADDED_MOS 6
        FILE_NAME CsPbBr3.bs
        &KPOINT_SET
            UNITS B_VECTOR              
            SPECIAL_POINT GAMMA 0.0 0.0 0.0
            SPECIAL_POINT X 0.0 0.5 0.5
            SPECIAL_POINT W 0.25 0.75 0.5
            SPECIAL_POINT L 0.5 0.5 0.5
            SPECIAL_POINT GAMMA 0.0 0.0 0.0 
            SPECIAL_POINT K 0.375 0.75 0.375
            SPECIAL_POINT X 0.0 0.5 0.5
	    NPOINTS 100
        &END
      &END
    &END

  &END DFT
 
  &SUBSYS
    &CELL
      ABC [angstrom] 5.986934 5.986934 5.986934
      PERIODIC XYZ
      SYMMETRY CUBIC
      MULTIPLE_UNIT_CELL 1 1 1
    &END

    &COORD
      SCALED
      Cs  1./2.  1./2.  1./2.
      Pb  0  0.0  0
      Br  1./2.  0  0	
      Br  0  1./2.  0
      Br  0.0  0  1./2.
    &END

    &KIND Pb
      ELEMENT   Pb
      BASIS_SET DZVP-MOLOPT-SR-GTH-q4
      POTENTIAL GTH-PBE-q4
    &END
    &KIND Cs
      ELEMENT   Cs
      BASIS_SET DZVP-MOLOPT-SR-GTH-q9
      POTENTIAL GTH-PBE-q9
    &END
    &KIND Br
      ELEMENT   Br
      BASIS_SET DZVP-MOLOPT-SR-GTH-q7
      POTENTIAL GTH-PBE-q7
    &END

  &END SUBSYS

&END FORCE_EVAL
